
Gurobi 10.0.0 (win64) logging started Thu Jun 13 21:51:26 2024

Set parameter LogFile to value "C:\Users\ealvarezq\Documents\GitHub\Comillas\Models\JointResearch\05. Models\06.Benchmarking\L.Cont_Investments_per_hour\RTS24_mod2_ByStages_nc40/openStarNet_RTS24_mod2_ByStages_nc40.log"
Set parameter Method to value 2
Set parameter MIPFocus to value 1
Set parameter Presolve to value 2
Set parameter RINS to value 100
Set parameter MIPGap to value 0.01
Set parameter Threads to value 9
Set parameter TimeLimit to value 259200
Set parameter IterationLimit to value 760000000
Gurobi Optimizer version 10.0.0 build v10.0.0rc2 (win64)

CPU model: Intel(R) Core(TM) i7-8700 CPU @ 3.20GHz, instruction set [SSE2|AVX|AVX2]
Thread count: 6 physical cores, 12 logical processors, using up to 9 threads

Optimize a model with 14203 rows, 9589 columns and 38668 nonzeros
Model fingerprint: 0xdbbed534
Variable types: 9568 continuous, 21 integer (21 binary)
Coefficient statistics:
  Matrix range     [4e-03, 3e+03]
  Objective range  [1e+00, 1e+00]
  Bounds range     [3e-05, 2e+00]
  RHS range        [3e-05, 2e+00]
Presolve removed 8451 rows and 4844 columns
Presolve time: 0.06s
Presolved: 5752 rows, 4745 columns, 20752 nonzeros
Variable types: 4724 continuous, 21 integer (21 binary)
Found heuristic solution: objective 91.3150298
Root relaxation presolve removed 4 rows and 4 columns
Root relaxation presolved: 5748 rows, 4741 columns, 20744 nonzeros

Root barrier log...

Ordering time: 0.00s

Barrier statistics:
 Dense cols : 21
 AA' NZ     : 3.854e+04
 Factor NZ  : 1.106e+05 (roughly 5 MB of memory)
 Factor Ops : 2.268e+06 (less than 1 second per iteration)
 Threads    : 9

                  Objective                Residual
Iter       Primal          Dual         Primal    Dual     Compl     Time
   0   2.71154222e+06 -2.32177788e+08  2.24e+01 1.08e+03  1.45e+05     0s
   1   8.91919719e+05 -1.26950756e+08  7.33e+00 1.59e+02  4.35e+04     0s
   2   5.69764664e+04 -8.46289567e+07  4.75e-01 5.44e+01  8.17e+03     0s
   3   1.77054906e+04 -1.06956228e+07  8.41e-02 1.01e-09  9.07e+02     0s
   4   1.08903174e+04 -6.57911657e+05  5.21e-03 3.97e-10  5.09e+01     0s
   5   6.96822832e+03 -1.09062297e+05  3.22e-13 1.38e-10  8.65e+00     0s
   6   2.68966734e+03 -2.81845115e+04  2.70e-13 2.00e-11  2.30e+00     0s
   7   8.33704564e+02 -6.70511740e+03  2.97e-13 4.55e-12  5.62e-01     0s
   8   2.09951846e+02 -1.93028505e+03  1.23e-13 4.22e-12  1.60e-01     0s
   9   1.27124433e+02 -3.44480991e+02  7.11e-14 4.01e-12  3.52e-02     0s
  10   7.97375580e+01 -7.31385227e+01  1.87e-13 3.16e-12  1.14e-02     0s
  11   6.30986627e+01 -5.91026385e+00  2.58e-13 8.21e-12  5.14e-03     0s
  12   5.38460792e+01  2.24851991e+01  5.87e-13 2.48e-12  2.34e-03     0s
  13   4.84469865e+01  2.97997254e+01  2.35e-12 1.98e-12  1.39e-03     0s
  14   4.53044943e+01  3.70797539e+01  6.62e-13 3.61e-12  6.13e-04     0s
  15   4.38662520e+01  3.94005952e+01  2.72e-12 6.18e-12  3.33e-04     0s
  16   4.34234311e+01  4.02189948e+01  2.84e-12 2.57e-12  2.39e-04     0s
  17   4.29886353e+01  4.09371473e+01  3.14e-12 2.33e-12  1.53e-04     0s
  18   4.25788457e+01  4.18569649e+01  3.94e-12 9.34e-12  5.38e-05     0s
  19   4.24535103e+01  4.20934699e+01  8.22e-12 7.12e-12  2.68e-05     0s
  20   4.23813204e+01  4.21841740e+01  9.02e-12 2.35e-12  1.47e-05     0s
  21   4.23397562e+01  4.22672746e+01  3.89e-11 5.46e-12  5.40e-06     0s
  22   4.23281522e+01  4.23155745e+01  3.57e-11 4.02e-12  9.38e-07     0s
  23   4.23232803e+01  4.23199270e+01  2.17e-11 4.39e-12  2.50e-07     0s
  24   4.23216181e+01  4.23209963e+01  1.40e-11 3.44e-12  4.63e-08     0s
  25   4.23212176e+01  4.23211478e+01  1.34e-11 1.32e-11  5.20e-09     0s
  26   4.23211828e+01  4.23211584e+01  1.40e-09 5.07e-12  1.81e-09     0s
  27   4.23211744e+01  4.23211633e+01  2.58e-07 4.44e-12  8.29e-10     0s
  28   4.23211644e+01  4.23211638e+01  3.64e-07 6.61e-12  5.30e-11     0s
  29   4.23211638e+01  4.23211638e+01  2.68e-08 4.38e-12  2.98e-12     0s

Barrier solved model in 29 iterations and 0.23 seconds (0.22 work units)
Optimal objective 4.23211638e+01


Root relaxation: objective 4.232116e+01, 639 iterations, 0.14 seconds (0.11 work units)

    Nodes    |    Current Node    |     Objective Bounds      |     Work
 Expl Unexpl |  Obj  Depth IntInf | Incumbent    BestBd   Gap | It/Node Time

     0     0   42.32116    0   16   91.31503   42.32116  53.7%     -    0s
H    0     0                      80.3458250   42.93382  46.6%     -    0s
     0     0   42.93382    0   11   80.34583   42.93382  46.6%     -    0s
     0     0   42.96825    0   11   80.34583   42.96825  46.5%     -    0s
H    0     0                      76.0157969   43.19090  43.2%     -    0s
     0     0   43.19090    0   18   76.01580   43.19090  43.2%     -    0s
     0     0   43.20572    0   12   76.01580   43.20572  43.2%     -    0s
H    0     0                      73.9514351   43.37933  41.3%     -    1s
     0     0   43.37933    0   13   73.95144   43.37933  41.3%     -    1s
     0     0   43.38424    0   10   73.95144   43.38424  41.3%     -    1s
     0     0   43.38836    0   10   73.95144   43.38836  41.3%     -    1s
     0     0   43.38870    0   10   73.95144   43.38870  41.3%     -    1s
H    0     0                      69.1806304   43.38870  37.3%     -    1s
     0     0   43.42782    0   10   69.18063   43.42782  37.2%     -    1s
H    0     0                      68.1226293   43.43272  36.2%     -    1s
     0     0   43.43272    0   10   68.12263   43.43272  36.2%     -    1s
     0     0   43.51910    0   11   68.12263   43.51910  36.1%     -    1s
H    0     0                      59.9564766   43.51910  27.4%     -    4s
     0     2   43.51910    0   11   59.95648   43.51910  27.4%     -    4s
    33    43   46.69852    6   14   59.95648   45.69422  23.8%   301    5s
   200   106   59.18600    9   12   59.95648   46.08187  23.1%   260   15s
H  210   106                      59.8976965   46.08187  23.1%   257   15s
   845   211     cutoff   12        59.89770   52.55974  12.3%   205   20s
  1195   232   56.78687    8    9   59.89770   53.17182  11.2%   191   31s
  1683   231     cutoff    9        59.89770   56.18607  6.20%   173   37s

Cutting planes:
  Gomory: 2
  Implied bound: 18
  MIR: 232
  Relax-and-lift: 20

Explored 2405 nodes (357823 simplex iterations) in 38.35 seconds (64.72 work units)
Thread count was 9 (of 12 available processors)

Solution count 8: 59.8977 59.9565 68.1226 ... 91.315

Optimal solution found (tolerance 1.00e-02)
Best objective 5.989769654336e+01, best bound 5.986474111625e+01, gap 0.0550%

Gurobi 10.0.0 (win64) logging started Thu Jun 13 21:52:06 2024

Set parameter LogFile to value "C:\Users\ealvarezq\Documents\GitHub\Comillas\Models\JointResearch\05. Models\06.Benchmarking\L.Cont_Investments_per_hour\RTS24_mod2_ByStages_nc40/openStarNet_RTS24_mod2_ByStages_nc40.log"
Set parameter Method to value 2
Set parameter MIPFocus to value 1
Set parameter Presolve to value 2
Set parameter RINS to value 100
Set parameter MIPGap to value 0.01
Set parameter Threads to value 9
Set parameter TimeLimit to value 259200
Set parameter IterationLimit to value 760000000
Gurobi Optimizer version 10.0.0 build v10.0.0rc2 (win64)

CPU model: Intel(R) Core(TM) i7-8700 CPU @ 3.20GHz, instruction set [SSE2|AVX|AVX2]
Thread count: 6 physical cores, 12 logical processors, using up to 9 threads

Optimize a model with 14203 rows, 9568 columns and 35287 nonzeros
Model fingerprint: 0x7788cc0e
Coefficient statistics:
  Matrix range     [4e-03, 3e+03]
  Objective range  [1e+00, 1e+00]
  Bounds range     [3e-05, 2e+00]
  RHS range        [3e-05, 2e+01]
Presolve removed 11963 rows and 5543 columns
Presolve time: 0.02s
Presolved: 2240 rows, 4098 columns, 10102 nonzeros

Ordering time: 0.00s

Barrier statistics:
 AA' NZ     : 5.868e+03
 Factor NZ  : 2.203e+04 (roughly 2 MB of memory)
 Factor Ops : 3.218e+05 (less than 1 second per iteration)
 Threads    : 1

                  Objective                Residual
Iter       Primal          Dual         Primal    Dual     Compl     Time
   0   2.77621949e+06 -8.89014550e+07  1.89e+01 6.56e+03  1.37e+05     0s
   1   1.70678250e+05 -5.23129105e+07  1.18e+00 5.82e-11  1.40e+04     0s
   2   5.15909386e+04 -1.40513309e+07  3.22e-01 1.31e-10  2.83e+03     0s
   3   1.96006281e+04 -3.35719357e+06  1.37e-02 6.18e-11  4.86e+02     0s
   4   1.46381994e+04 -2.17220652e+05  1.22e-04 1.53e-10  3.23e+01     0s
   5   5.60871877e+03 -5.81092777e+04  6.95e-06 4.00e-11  8.88e+00     0s
   6   1.92551867e+03 -1.54617520e+04  2.21e-07 1.64e-11  2.42e+00     0s
   7   5.74579135e+02 -2.54167764e+03  3.23e-09 2.36e-11  4.34e-01     0s
   8   1.91449467e+02 -5.00535474e+02  2.36e-11 1.21e-11  9.64e-02     0s
   9   1.32523419e+02 -1.28948536e+02  1.05e-11 1.54e-11  3.64e-02     0s
  10   9.79563920e+01 -1.41505757e+01  4.71e-12 8.70e-12  1.56e-02     0s
  11   7.88692937e+01  2.70319413e+01  2.12e-12 1.66e-11  7.22e-03     0s
  12   6.97881251e+01  4.69948759e+01  6.70e-12 1.02e-11  3.17e-03     0s
  13   6.30304969e+01  5.52199291e+01  8.23e-12 7.32e-12  1.09e-03     0s
  14   6.07590340e+01  5.88427043e+01  4.88e-11 2.73e-12  2.67e-04     0s
  15   6.01671523e+01  5.96529705e+01  1.21e-11 1.49e-11  7.16e-05     0s
  16   5.99566346e+01  5.98097997e+01  9.70e-12 4.53e-12  2.05e-05     0s
  17   5.99069826e+01  5.98696151e+01  8.52e-12 2.03e-11  5.21e-06     0s
  18   5.98979118e+01  5.98965490e+01  1.06e-11 1.97e-11  1.90e-07     0s
  19   5.98977030e+01  5.98976817e+01  1.04e-11 1.05e-11  2.97e-09     0s
  20   5.98976965e+01  5.98976965e+01  2.58e-11 6.34e-12  2.97e-12     0s
  21   5.98976965e+01  5.98976965e+01  4.52e-12 1.49e-11  2.97e-15     0s

Barrier solved model in 21 iterations and 0.05 seconds (0.05 work units)
Optimal objective 5.98976965e+01

Crossover log...

     439 DPushes remaining with DInf 0.0000000e+00                 0s
       0 DPushes remaining with DInf 0.0000000e+00                 0s

     143 PPushes remaining with PInf 0.0000000e+00                 0s
       0 PPushes remaining with PInf 0.0000000e+00                 0s

  Push phase complete: Pinf 0.0000000e+00, Dinf 4.4558359e-13      0s

Iteration    Objective       Primal Inf.    Dual Inf.      Time
     148    5.9897697e+01   0.000000e+00   0.000000e+00      0s

Use crossover to convert LP symmetric solution to basic solution...
Crossover log...

       0 DPushes remaining with DInf 0.0000000e+00                 0s

      75 PPushes remaining with PInf 0.0000000e+00                 0s
       0 PPushes remaining with PInf 0.0000000e+00                 0s

  Push phase complete: Pinf 0.0000000e+00, Dinf 4.7914312e-13      0s

Iteration    Objective       Primal Inf.    Dual Inf.      Time
     232    5.9897697e+01   0.000000e+00   0.000000e+00      0s

Solved in 232 iterations and 0.07 seconds (0.06 work units)
Optimal objective  5.989769654e+01
